SCIP version 0.82 [precision: 8 byte] [memory: block] [mode: optimized] [LP solver: SOPLEX 1.3.0]
Copyright (c) 2002-2006 Konrad-Zuse-Zentrum fuer Informationstechnik Berlin (ZIB)

reading parameter file <scip.set>

read problem </ufs/psxjm3/instances/random_6.ctt.etp.zpl>
============

****************************************************
* Zuse Institute Mathematical Programming Language *
* Release 2.04  Copyright (C)2005 by Thorsten Koch *
****************************************************

original problem has 21714 variables (21645 bin, 69 int, 0 impl, 0 cont) and 8625 constraints

solve problem
=============

LP Solver <SOPLEX 1.3.0>: dual feasibility tolerance cannot be set -- tolerance of SCIP and LP solver may differ
LP Solver <SOPLEX 1.3.0>: barrier convergence tolerance cannot be set -- tolerance of SCIP and LP solver may differ
LP Solver <SOPLEX 1.3.0>: fastmip setting not available -- SCIP parameter has no effect
LP Solver <SOPLEX 1.3.0>: scaling not available -- SCIP parameter has no effect
LP Solver <SOPLEX 1.3.0>: presolving not available -- SCIP parameter has no effect
transformed problem has 21714 variables (21645 bin, 69 int, 0 impl, 0 cont) and 8625 constraints
   8625 constraints of type <linear>

presolving:
(round 1) 2732 del vars, 314 del conss, 2732 chg bounds, 0 chg sides, 0 chg coeffs, 0 upgd conss, 0 impls, 4332 clqs
(round 2) 2732 del vars, 594 del conss, 2732 chg bounds, 0 chg sides, 0 chg coeffs, 0 upgd conss, 0 impls, 4332 clqs
(round 3) 2732 del vars, 2485 del conss, 2732 chg bounds, 1895 chg sides, 0 chg coeffs, 0 upgd conss, 0 impls, 4332 clqs
(round 4) 2732 del vars, 2485 del conss, 2732 chg bounds, 1895 chg sides, 0 chg coeffs, 5751 upgd conss, 0 impls, 4332 clqs
(round 5) 2732 del vars, 2597 del conss, 2732 chg bounds, 1895 chg sides, 6 chg coeffs, 5751 upgd conss, 0 impls, 4332 clqs
   (32.6s) probing: 100/18913 (0.5%) - 0 fixings, 0 aggregations, 0 implications, 0 bound changes
presolving (6 rounds):
 2732 deleted vars, 2597 deleted constraints, 2732 tightened bounds, 0 added holes, 1895 changed sides, 6 changed coefficients
 0 implications, 4332 cliques
presolved problem has 18982 variables (18913 bin, 69 int, 0 impl, 0 cont) and 6028 constraints
   2500 constraints of type <knapsack>
   2825 constraints of type <setppc>
    389 constraints of type <linear>
    314 constraints of type <logicor>
objective value is always integral
Presolving Time: 32.03

 time | node  | left  |LP iter| mem |mdpt |frac |vars |cons |ccons|cols |rows |cuts |confs|strbr|  dualbound   | primalbound  |  gap   
  536s|     1 |     0 | 85837 | 162M|   0 | 738 |  18k|6028 |6028 |  18k|6028 |   0 |   0 |   0 | 3.166000e+03 |      --      |    Inf 
  545s|     1 |     0 | 86999 | 165M|   0 | 783 |  18k|6028 |6028 |  18k|6034 |   6 |   0 |   0 | 3.166000e+03 |      --      |    Inf 
  563s|     1 |     0 | 89443 | 165M|   0 | 773 |  18k|6028 |6028 |  18k|6040 |  12 |   0 |   0 | 3.166000e+03 |      --      |    Inf 
  574s|     1 |     0 | 90828 | 165M|   0 | 776 |  18k|6028 |6028 |  18k|6046 |  18 |   0 |   0 | 3.166000e+03 |      --      |    Inf 
  597s|     1 |     0 | 93623 | 165M|   0 | 770 |  18k|6028 |6028 |  18k|6052 |  24 |   0 |   0 | 3.166000e+03 |      --      |    Inf 
  613s|     1 |     0 | 95593 | 165M|   0 | 775 |  18k|6028 |6028 |  18k|6058 |  30 |   0 |   0 | 3.166000e+03 |      --      |    Inf 
  630s|     1 |     0 | 97686 | 165M|   0 | 796 |  18k|6028 |6028 |  18k|6065 |  37 |   0 |   0 | 3.166000e+03 |      --      |    Inf 
  908s|     1 |     2 |112837 | 165M|   0 | 796 |  18k|6028 |6028 |  18k|6065 |  37 |   0 |  20 | 3.166000e+03 |      --      |    Inf 
 3554s|   100 |   101 |264826 | 167M|  99 | 427 |  18k|6028 |5429 |  18k|6050 |  37 |   0 | 260 | 3.166000e+03 |      --      |    Inf 
 4740s|   200 |   201 |404347 | 169M| 151 | 659 |  18k|6028 |5769 |  18k|6050 |  37 |   0 | 324 | 3.166000e+03 |      --      |    Inf 
p5578s|   286 |   287 |516744 | 173M| 151 |   - |  18k|6028 |4308 |  18k|6050 |  37 |   0 | 372 | 3.166000e+03 | 3.503000e+03 |  10.64%
 5847s|   300 |   301 |542245 | 171M| 151 | 666 |  18k|6028 |5780 |  18k|6050 |  37 |   0 | 387 | 3.166000e+03 | 3.503000e+03 |  10.64%
R6744s|   389 |   375 |648283 | 172M| 151 |  42 |  18k|6028 |5008 |  18k|6050 |  37 |   0 | 447 | 3.166000e+03 | 3.191000e+03 |   0.79%
 6822s|   400 |   388 |660326 | 173M| 151 | 615 |  18k|6028 |5733 |  18k|6050 |  37 |   0 | 447 | 3.166000e+03 | 3.191000e+03 |   0.79%

SCIP Status        : solving was interrupted [time limit reached]
Solving Time (sec) : 7222.80
Solving Nodes      : 422
Primal Bound       : +3.19100000000000e+03 (2 solutions)
Dual Bound         : +3.16600000000003e+03
Gap                : 0.79 %

primal solution:
================

objective value:                                 3191
Taught#1#4#41                                       1 	(obj:0)
Taught#1#5#62                                       1 	(obj:0)
Taught#1#7#48                                       1 	(obj:26)
Taught#1#8#46                                       1 	(obj:65)
Taught#1#9#38                                       1 	(obj:4)
Taught#1#10#14                                      1 	(obj:27)
Taught#1#11#54                                      1 	(obj:60)
Taught#1#12#59                                      1 	(obj:0)
Taught#2#4#41                                       1 	(obj:0)
Taught#2#6#34                                       1 	(obj:0)
Taught#2#7#48                                       1 	(obj:26)
Taught#2#8#64                                       1 	(obj:22)
Taught#2#9#47                                       1 	(obj:3)
Taught#2#10#26                                      1 	(obj:30)
Taught#2#11#54                                      1 	(obj:60)
Taught#2#12#59                                      1 	(obj:0)
Taught#3#1#40                                       1 	(obj:0)
Taught#3#4#36                                       1 	(obj:0)
Taught#3#6#33                                       1 	(obj:0)
Taught#3#7#67                                       1 	(obj:49)
Taught#3#8#7                                        1 	(obj:17)
Taught#3#9#56                                       1 	(obj:0)
Taught#3#10#69                                      1 	(obj:0)
Taught#3#11#31                                      1 	(obj:51)
Taught#3#12#52                                      1 	(obj:8)
Taught#4#5#17                                       1 	(obj:0)
Taught#4#6#36                                       1 	(obj:0)
Taught#4#7#44                                       1 	(obj:31)
Taught#4#8#60                                       1 	(obj:17)
Taught#4#9#29                                       1 	(obj:5)
Taught#4#10#9                                       1 	(obj:0)
Taught#4#11#31                                      1 	(obj:51)
Taught#4#12#52                                      1 	(obj:8)
Taught#5#4#6                                        1 	(obj:0)
Taught#5#6#33                                       1 	(obj:0)
Taught#5#7#16                                       1 	(obj:58)
Taught#5#8#55                                       1 	(obj:0)
Taught#5#9#47                                       1 	(obj:3)
Taught#5#10#57                                      1 	(obj:72)
Taught#5#11#32                                      1 	(obj:7)
Taught#5#12#27                                      1 	(obj:0)
Taught#6#1#40                                       1 	(obj:0)
Taught#6#5#11                                       1 	(obj:0)
Taught#6#7#19                                       1 	(obj:36)
Taught#6#8#37                                       1 	(obj:18)
Taught#6#9#8                                        1 	(obj:0)
Taught#6#10#14                                      1 	(obj:27)
Taught#6#11#45                                      1 	(obj:16)
Taught#6#12#42                                      1 	(obj:19)
Taught#7#4#11                                       1 	(obj:0)
Taught#7#5#5                                        1 	(obj:0)
Taught#7#6#58                                       1 	(obj:0)
Taught#7#7#37                                       1 	(obj:18)
Taught#7#8#60                                       1 	(obj:17)
Taught#7#9#38                                       1 	(obj:4)
Taught#7#10#26                                      1 	(obj:30)
Taught#7#11#35                                      1 	(obj:34)
Taught#7#12#27                                      1 	(obj:0)
Taught#8#3#34                                       1 	(obj:0)
Taught#8#4#17                                       1 	(obj:0)
Taught#8#5#62                                       1 	(obj:0)
Taught#8#6#58                                       1 	(obj:0)
Taught#8#7#24                                       1 	(obj:11)
Taught#8#8#48                                       1 	(obj:26)
Taught#8#9#47                                       1 	(obj:3)
Taught#8#10#29                                      1 	(obj:0)
Taught#8#11#61                                      1 	(obj:29)
Taught#8#12#23                                      1 	(obj:32)
Taught#9#4#68                                       1 	(obj:0)
Taught#9#5#41                                       1 	(obj:0)
Taught#9#7#24                                       1 	(obj:11)
Taught#9#8#7                                        1 	(obj:17)
Taught#9#9#1                                        1 	(obj:0)
Taught#9#10#63                                      1 	(obj:0)
Taught#9#11#65                                      1 	(obj:14)
Taught#9#12#51                                      1 	(obj:0)
Taught#10#7#55                                      1 	(obj:0)
Taught#10#8#20                                      1 	(obj:8)
Taught#10#9#63                                      1 	(obj:8)
Taught#10#10#4                                      1 	(obj:18)
Taught#10#11#32                                     1 	(obj:7)
Taught#10#12#25                                     1 	(obj:4)
Taught#11#2#21                                      1 	(obj:0)
Taught#11#7#30                                      1 	(obj:0)
Taught#11#8#18                                      1 	(obj:51)
Taught#11#9#1                                       1 	(obj:0)
Taught#11#10#14                                     1 	(obj:27)
Taught#11#11#39                                     1 	(obj:29)
Taught#11#12#2                                      1 	(obj:0)
Taught#12#1#40                                      1 	(obj:0)
Taught#12#6#28                                      1 	(obj:0)
Taught#12#7#15                                      1 	(obj:57)
Taught#12#8#53                                      1 	(obj:35)
Taught#12#9#1                                       1 	(obj:0)
Taught#12#10#9                                      1 	(obj:0)
Taught#12#11#39                                     1 	(obj:29)
Taught#12#12#25                                     1 	(obj:4)
Taught#13#4#10                                      1 	(obj:0)
Taught#13#5#66                                      1 	(obj:0)
Taught#13#6#68                                      1 	(obj:0)
Taught#13#7#60                                      1 	(obj:17)
Taught#13#8#37                                      1 	(obj:18)
Taught#13#9#56                                      1 	(obj:0)
Taught#13#10#13                                     1 	(obj:11)
Taught#13#11#32                                     1 	(obj:7)
Taught#13#12#42                                     1 	(obj:19)
Taught#14#5#68                                      1 	(obj:0)
Taught#14#6#17                                      1 	(obj:0)
Taught#14#7#30                                      1 	(obj:0)
Taught#14#8#46                                      1 	(obj:65)
Taught#14#9#63                                      1 	(obj:8)
Taught#14#10#54                                     1 	(obj:100)
Taught#14#11#61                                     1 	(obj:29)
Taught#14#12#42                                     1 	(obj:19)
Taught#15#4#3                                       1 	(obj:0)
Taught#15#5#36                                      1 	(obj:0)
Taught#15#6#58                                      1 	(obj:0)
Taught#15#7#18                                      1 	(obj:51)
Taught#15#8#44                                      1 	(obj:31)
Taught#15#9#56                                      1 	(obj:0)
Taught#15#10#35                                     1 	(obj:74)
Taught#15#11#31                                     1 	(obj:51)
Taught#15#12#22                                     1 	(obj:0)
Taught#16#6#33                                      1 	(obj:0)
Taught#16#7#15                                      1 	(obj:57)
Taught#16#8#64                                      1 	(obj:22)
Taught#16#9#38                                      1 	(obj:4)
Taught#16#10#69                                     1 	(obj:0)
Taught#16#11#35                                     1 	(obj:34)
Taught#16#12#51                                     1 	(obj:0)
Taught#17#1#21                                      1 	(obj:0)
Taught#17#7#15                                      1 	(obj:57)
Taught#17#8#67                                      1 	(obj:49)
Taught#17#9#9                                       1 	(obj:8)
Taught#17#10#4                                      1 	(obj:18)
Taught#17#11#43                                     1 	(obj:43)
Taught#17#12#22                                     1 	(obj:0)
Taught#18#1#34                                      1 	(obj:0)
Taught#18#4#5                                       1 	(obj:0)
Taught#18#5#40                                      1 	(obj:0)
Taught#18#7#12                                      1 	(obj:9)
Taught#18#8#10                                      1 	(obj:0)
Taught#18#9#8                                       1 	(obj:0)
Taught#18#10#9                                      1 	(obj:0)
Taught#18#11#61                                     1 	(obj:29)
Taught#18#12#23                                     1 	(obj:32)
Taught#19#6#58                                      1 	(obj:0)
Taught#19#7#55                                      1 	(obj:0)
Taught#19#8#16                                      1 	(obj:58)
Taught#19#9#49                                      1 	(obj:10)
Taught#19#10#45                                     1 	(obj:56)
Taught#19#11#57                                     1 	(obj:32)
Taught#19#12#2                                      1 	(obj:0)
Taught#20#4#36                                      1 	(obj:0)
Taught#20#6#10                                      1 	(obj:0)
Taught#20#7#55                                      1 	(obj:0)
Taught#20#8#18                                      1 	(obj:51)
Taught#20#9#38                                      1 	(obj:4)
Taught#20#10#13                                     1 	(obj:11)
Taught#20#11#32                                     1 	(obj:7)
Taught#20#12#23                                     1 	(obj:32)
Taught#21#4#6                                       1 	(obj:0)
Taught#21#5#28                                      1 	(obj:0)
Taught#21#6#5                                       1 	(obj:0)
Taught#21#7#50                                      1 	(obj:51)
Taught#21#8#18                                      1 	(obj:51)
Taught#21#9#8                                       1 	(obj:0)
Taught#21#10#14                                     1 	(obj:27)
Taught#21#11#31                                     1 	(obj:51)
Taught#21#12#52                                     1 	(obj:8)
Taught#22#5#6                                       1 	(obj:0)
Taught#22#6#3                                       1 	(obj:0)
Taught#22#7#16                                      1 	(obj:58)
Taught#22#8#50                                      1 	(obj:51)
Taught#22#9#1                                       1 	(obj:0)
Taught#22#10#63                                     1 	(obj:0)
Taught#22#11#54                                     1 	(obj:60)
Taught#22#12#25                                     1 	(obj:4)
Taught#23#7#15                                      1 	(obj:57)
Taught#23#8#12                                      1 	(obj:9)
Taught#23#9#46                                      1 	(obj:0)
Taught#23#10#45                                     1 	(obj:56)
Taught#23#11#43                                     1 	(obj:43)
Taught#23#12#25                                     1 	(obj:4)
Taught#24#4#66                                      1 	(obj:0)
Taught#24#5#62                                      1 	(obj:0)
Taught#24#7#20                                      1 	(obj:8)
Taught#24#8#19                                      1 	(obj:36)
Taught#24#9#56                                      1 	(obj:0)
Taught#24#10#49                                     1 	(obj:0)
Taught#24#11#35                                     1 	(obj:34)
Taught#24#12#51                                     1 	(obj:0)
Taught#25#2#21                                      1 	(obj:0)
Taught#25#4#33                                      1 	(obj:0)
Taught#25#7#53                                      1 	(obj:35)
Taught#25#8#67                                      1 	(obj:49)
Taught#25#9#47                                      1 	(obj:3)
Taught#25#10#49                                     1 	(obj:0)
Taught#25#11#65                                     1 	(obj:14)
Taught#25#12#51                                     1 	(obj:0)
CourseSchedule#1#2                                  1 	(obj:0)
CourseSchedule#1#3                                  1 	(obj:0)
CourseSchedule#1#5                                  1 	(obj:0)
CourseSchedule#2#3                                  1 	(obj:0)
CourseSchedule#2#4                                  1 	(obj:0)
CourseSchedule#3#3                                  1 	(obj:0)
CourseSchedule#3#5                                  1 	(obj:0)
CourseSchedule#4#2                                  1 	(obj:0)
CourseSchedule#4#4                                  1 	(obj:0)
CourseSchedule#5#2                                  1 	(obj:0)
CourseSchedule#5#4                                  1 	(obj:0)
CourseSchedule#5#5                                  1 	(obj:0)
CourseSchedule#6#1                                  1 	(obj:0)
CourseSchedule#6#5                                  1 	(obj:0)
CourseSchedule#7#1                                  1 	(obj:0)
CourseSchedule#7#2                                  1 	(obj:0)
CourseSchedule#8#2                                  1 	(obj:0)
CourseSchedule#8#4                                  1 	(obj:0)
CourseSchedule#8#5                                  1 	(obj:0)
CourseSchedule#9#1                                  1 	(obj:0)
CourseSchedule#9#3                                  1 	(obj:0)
CourseSchedule#9#4                                  1 	(obj:0)
CourseSchedule#10#3                                 1 	(obj:0)
CourseSchedule#10#4                                 1 	(obj:0)
CourseSchedule#11#2                                 1 	(obj:0)
CourseSchedule#12#4                                 1 	(obj:0)
CourseSchedule#12#5                                 1 	(obj:0)
CourseSchedule#13#3                                 1 	(obj:0)
CourseSchedule#13#4                                 1 	(obj:0)
CourseSchedule#14#1                                 1 	(obj:0)
CourseSchedule#14#2                                 1 	(obj:0)
CourseSchedule#14#3                                 1 	(obj:0)
CourseSchedule#14#5                                 1 	(obj:0)
CourseSchedule#15#3                                 1 	(obj:0)
CourseSchedule#15#4                                 1 	(obj:0)
CourseSchedule#15#5                                 1 	(obj:0)
CourseSchedule#16#1                                 1 	(obj:0)
CourseSchedule#16#4                                 1 	(obj:0)
CourseSchedule#16#5                                 1 	(obj:0)
CourseSchedule#17#1                                 1 	(obj:0)
CourseSchedule#17#2                                 1 	(obj:0)
CourseSchedule#17#3                                 1 	(obj:0)
CourseSchedule#18#3                                 1 	(obj:0)
CourseSchedule#18#4                                 1 	(obj:0)
CourseSchedule#18#5                                 1 	(obj:0)
CourseSchedule#19#2                                 1 	(obj:0)
CourseSchedule#19#5                                 1 	(obj:0)
CourseSchedule#20#2                                 1 	(obj:0)
CourseSchedule#20#5                                 1 	(obj:0)
CourseSchedule#21#3                                 1 	(obj:0)
CourseSchedule#21#4                                 1 	(obj:0)
CourseSchedule#21#5                                 1 	(obj:0)
CourseSchedule#22#3                                 1 	(obj:0)
CourseSchedule#22#4                                 1 	(obj:0)
CourseSchedule#23#2                                 1 	(obj:0)
CourseSchedule#23#4                                 1 	(obj:0)
CourseSchedule#24#2                                 1 	(obj:0)
CourseSchedule#25#2                                 1 	(obj:0)
CourseSchedule#25#3                                 1 	(obj:0)
CourseSchedule#25#5                                 1 	(obj:0)
CourseSchedule#26#1                                 1 	(obj:0)
CourseSchedule#26#2                                 1 	(obj:0)
CourseSchedule#27#1                                 1 	(obj:0)
CourseSchedule#27#2                                 1 	(obj:0)
CourseSchedule#28#3                                 1 	(obj:0)
CourseSchedule#28#5                                 1 	(obj:0)
CourseSchedule#29#1                                 1 	(obj:0)
CourseSchedule#29#2                                 1 	(obj:0)
CourseSchedule#30#3                                 1 	(obj:0)
CourseSchedule#31#1                                 1 	(obj:0)
CourseSchedule#31#3                                 1 	(obj:0)
CourseSchedule#31#5                                 1 	(obj:0)
CourseSchedule#32#1                                 1 	(obj:0)
CourseSchedule#32#2                                 1 	(obj:0)
CourseSchedule#32#3                                 1 	(obj:0)
CourseSchedule#32#4                                 1 	(obj:0)
CourseSchedule#33#1                                 1 	(obj:0)
CourseSchedule#33#4                                 1 	(obj:0)
CourseSchedule#33#5                                 1 	(obj:0)
CourseSchedule#34#1                                 1 	(obj:0)
CourseSchedule#34#2                                 1 	(obj:0)
CourseSchedule#34#4                                 1 	(obj:0)
CourseSchedule#35#2                                 1 	(obj:0)
CourseSchedule#35#3                                 1 	(obj:0)
CourseSchedule#35#4                                 1 	(obj:0)
CourseSchedule#35#5                                 1 	(obj:0)
CourseSchedule#36#1                                 1 	(obj:0)
CourseSchedule#36#3                                 1 	(obj:0)
CourseSchedule#36#4                                 1 	(obj:0)
CourseSchedule#37#2                                 1 	(obj:0)
CourseSchedule#37#3                                 1 	(obj:0)
CourseSchedule#38#1                                 1 	(obj:0)
CourseSchedule#38#2                                 1 	(obj:0)
CourseSchedule#38#4                                 1 	(obj:0)
CourseSchedule#39#3                                 1 	(obj:0)
CourseSchedule#40#1                                 1 	(obj:0)
CourseSchedule#40#2                                 1 	(obj:0)
CourseSchedule#40#3                                 1 	(obj:0)
CourseSchedule#40#4                                 1 	(obj:0)
CourseSchedule#41#1                                 1 	(obj:0)
CourseSchedule#41#2                                 1 	(obj:0)
CourseSchedule#42#2                                 1 	(obj:0)
CourseSchedule#42#3                                 1 	(obj:0)
CourseSchedule#43#4                                 1 	(obj:0)
CourseSchedule#43#5                                 1 	(obj:0)
CourseSchedule#44#1                                 1 	(obj:0)
CourseSchedule#44#3                                 1 	(obj:0)
CourseSchedule#45#2                                 1 	(obj:0)
CourseSchedule#45#4                                 1 	(obj:0)
CourseSchedule#45#5                                 1 	(obj:0)
CourseSchedule#46#1                                 1 	(obj:0)
CourseSchedule#46#3                                 1 	(obj:0)
CourseSchedule#46#5                                 1 	(obj:0)
CourseSchedule#47#1                                 1 	(obj:0)
CourseSchedule#47#2                                 1 	(obj:0)
CourseSchedule#47#5                                 1 	(obj:0)
CourseSchedule#48#1                                 1 	(obj:0)
CourseSchedule#48#2                                 1 	(obj:0)
CourseSchedule#49#4                                 1 	(obj:0)
CourseSchedule#49#5                                 1 	(obj:0)
CourseSchedule#50#5                                 1 	(obj:0)
CourseSchedule#51#2                                 1 	(obj:0)
CourseSchedule#51#4                                 1 	(obj:0)
CourseSchedule#51#5                                 1 	(obj:0)
CourseSchedule#52#1                                 1 	(obj:0)
CourseSchedule#52#5                                 1 	(obj:0)
CourseSchedule#53#3                                 1 	(obj:0)
CourseSchedule#53#5                                 1 	(obj:0)
CourseSchedule#54#1                                 1 	(obj:0)
CourseSchedule#54#3                                 1 	(obj:0)
CourseSchedule#54#5                                 1 	(obj:0)
CourseSchedule#55#1                                 1 	(obj:0)
CourseSchedule#55#2                                 1 	(obj:0)
CourseSchedule#55#4                                 1 	(obj:0)
CourseSchedule#56#1                                 1 	(obj:0)
CourseSchedule#56#3                                 1 	(obj:0)
CourseSchedule#56#5                                 1 	(obj:0)
CourseSchedule#57#1                                 1 	(obj:0)
CourseSchedule#57#4                                 1 	(obj:0)
CourseSchedule#58#2                                 1 	(obj:0)
CourseSchedule#58#3                                 1 	(obj:0)
CourseSchedule#58#4                                 1 	(obj:0)
CourseSchedule#59#1                                 1 	(obj:0)
CourseSchedule#60#1                                 1 	(obj:0)
CourseSchedule#60#2                                 1 	(obj:0)
CourseSchedule#60#3                                 1 	(obj:0)
CourseSchedule#61#2                                 1 	(obj:0)
CourseSchedule#61#3                                 1 	(obj:0)
CourseSchedule#61#4                                 1 	(obj:0)
CourseSchedule#62#1                                 1 	(obj:0)
CourseSchedule#62#2                                 1 	(obj:0)
CourseSchedule#62#5                                 1 	(obj:0)
CourseSchedule#63#2                                 1 	(obj:0)
CourseSchedule#63#3                                 1 	(obj:0)
CourseSchedule#63#5                                 1 	(obj:0)
CourseSchedule#64#1                                 1 	(obj:0)
CourseSchedule#64#4                                 1 	(obj:0)
CourseSchedule#65#2                                 1 	(obj:0)
CourseSchedule#65#5                                 1 	(obj:0)
CourseSchedule#66#3                                 1 	(obj:0)
CourseSchedule#66#5                                 1 	(obj:0)
CourseSchedule#67#1                                 1 	(obj:0)
CourseSchedule#67#4                                 1 	(obj:0)
CourseSchedule#67#5                                 1 	(obj:0)
CourseSchedule#68#2                                 1 	(obj:0)
CourseSchedule#68#3                                 1 	(obj:0)
CourseSchedule#69#1                                 1 	(obj:0)
CourseSchedule#69#4                                 1 	(obj:0)
PatternPenalties#1#3                                1 	(obj:1)
PatternPenalties#2#1                                1 	(obj:1)
PatternPenalties#3#3                                1 	(obj:1)
PatternPenalties#6#3                                1 	(obj:1)
PatternPenalties#9#3                                1 	(obj:1)
PatternPenalties#12#2                               1 	(obj:1)
PatternPenalties#14#1                               1 	(obj:1)
PatternPenalties#16#4                               1 	(obj:1)
PatternPenalties#17#3                               1 	(obj:1)
PatternPenalties#18#3                               1 	(obj:1)
SingletonChecks#1#3#2                               1 	(obj:1)
SingletonChecks#2#1#2                               1 	(obj:1)
SingletonChecks#3#3#4                               1 	(obj:1)
SingletonChecks#6#3#1                               1 	(obj:1)
SingletonChecks#9#3#2                               1 	(obj:1)
SingletonChecks#12#2#2                              1 	(obj:1)
SingletonChecks#14#1#4                              1 	(obj:1)
SingletonChecks#16#4#5                              1 	(obj:1)
SingletonChecks#17#3#2                              1 	(obj:1)
SingletonChecks#18#3#4                              1 	(obj:1)

Statistics
==========

SCIP Status        : solving was interrupted [time limit reached]
Solving Time       :    7222.80
Original Problem   :
  Problem name     : random_6.ctt.etp.zpl
  Variables        : 21714 (21645 binary, 69 integer, 0 implicit integer, 0 continuous)
  Constraints      : 8625 initial, 8625 maximal
Presolved Problem  :
  Problem name     : t_random_6.ctt.etp.zpl
  Variables        : 18982 (18913 binary, 69 integer, 0 implicit integer, 0 continuous)
  Constraints      : 6028 initial, 6028 maximal
Presolvers         :       Time  FixedVars   AggrVars   ChgTypes  ChgBounds   AddHoles    DelCons   ChgSides   ChgCoefs
  trivial          :       0.03          0          0          0          0          0          0          0          0
  inttobinary      :       0.00          0          0          0          0          0          0          0          0
  dualfix          :       0.02          0          0          0          0          0          0          0          0
  implics          :       0.00          0          0          0          0          0          0          0          0
  probing          :       3.28          0          0          0          0          0          0          0          0
  knapsack         :      16.50          0          0          0          0          0          0          0          6
  setppc           :       0.28          0          0          0          0          0        112          0          0
  linear           :      11.56       2732          0          0       2732          0       2485       1895          0
  logicor          :       0.01          0          0          0          0          0          0          0          0
  root node        :          -       9307          -          -       9376          -          -          -          -
Constraints        :     Number  #Separate #Propagate    #EnfoLP    #EnfoPS    Cutoffs    DomReds       Cuts      Conss   Children
  integral         :          0          0          0        422          0          0          0          0          0        844
  knapsack         :       2500          6       1525          0          0          0        163          0          0          0
  setppc           :       2825          6       1525          0          0          0      27873          0          0          0
  linear           :        389          6        929          0          0          0       4228          0          0          0
  logicor          :        314          6        299          0          0          0         89          0          0          0
Constraint Timings :  TotalTime   Separate  Propagate     EnfoLP     EnfoPS
  integral         :    3014.87       0.00       0.00    3014.87       0.00
  knapsack         :       1.58       1.19       0.39       0.00       0.00
  setppc           :       0.53       0.00       0.53       0.00       0.00
  linear           :       3.94       0.48       3.46       0.00       0.00
  logicor          :       0.01       0.00       0.01       0.00       0.00
Propagators        :       Time      Calls    Cutoffs    DomReds
  rootredcost      :       0.05          2          0       9376
  pseudoobj        :       0.03       1325          0          0
Conflict Analysis  :       Time      Calls    Success  Conflicts   Literals    Reconvs ReconvLits   LP Iters
  propagation      :       0.00          0          0          0        0.0          0        0.0          -
  infeasible LP    :       0.00          0          0          0        0.0          0        0.0          0
  bound exceed. LP :       0.00          0          0          0        0.0          0        0.0          0
  strong branching :       0.00          0          0          0        0.0          0        0.0          0
  pseudo solution  :       0.00          0          0          0        0.0          0        0.0          -
  applied globally :          -          -          -          0        0.0          -          -          -
  applied locally  :          -          -          -          0        0.0          -          -          -
Separators         :       Time      Calls    Cutoffs    DomReds       Cuts      Conss
  cut pool         :       0.00          5          -          -          1          -    (maximal pool size: 37)
  redcost          :       1.82        428          0       7882          0          0
  impliedbounds    :       0.03          6          0          0          0          0
  intobj           :       0.00          0          0          0          0          0
  gomory           :       1.69          6          0          0          0          0
  strongcg         :       1.92          6          0          0          0          0
  cmir             :       3.61          6          0          0          0          0
  clique           :       0.40          6          0          0         36          0
Pricers            :       Time      Calls       Vars
  problem variables:       0.00          0          0
Branching Rules    :       Time      Calls    Cutoffs    DomReds       Cuts      Conss   Children
  relpscost        :    3014.87        422          0          0          0          0        844
  pscost           :       0.00          0          0          0          0          0          0
  inference        :       0.00          0          0          0          0          0          0
  mostinf          :       0.00          0          0          0          0          0          0
  leastinf         :       0.00          0          0          0          0          0          0
  fullstrong       :       0.00          0          0          0          0          0          0
  allfullstrong    :       0.00          0          0          0          0          0          0
Primal Heuristics  :       Time      Calls      Found
  LP solutions     :       0.00          -          0
  pseudo solutions :       0.00          -          0
  objpscostdiving  :       0.00          0          0
  rootsoldiving    :       0.00          0          0
  linesearchdiving :       0.00          0          0
  guideddiving     :       0.00          0          0
  crossover        :       0.00          0          0
  coefdiving       :      51.80          1          0
  pscostdiving     :      69.06          1          1
  fracdiving       :       0.43          1          0
  feaspump         :     130.33          1          0
  simplerounding   :       1.69        431          0
  rounding         :       5.45        431          1
  shifting         :       2.76         48          0
  fixandinfer      :       0.00          0          0
  intdiving        :       0.00          0          0
  octane           :       0.00          0          0
  rins             :       0.00          0          0
  localbranching   :       0.00          0          0
LP                 :       Time      Calls Iterations  Iter/call   Iter/sec
  primal LP        :       0.04          0          0       0.00       0.00
  dual LP          :    3896.21        428     652524    1524.59     167.48
  barrier LP       :       0.00          0          0       0.00          -
  diving/probing LP:     245.77        469      43722      93.22     177.90
  strong branching :    3014.64        477     460752     965.94     152.84
    (at root node) :          -         20      20000    1000.00          -
  conflict analysis:       0.00          0          0       0.00          -
B&B Tree           :
  number of runs   :          1
  nodes            :        422
  nodes (total)    :        422
  nodes left       :        410
  max depth        :        151
  max depth (total):        151
  backtracks       :          3 (0.7%)
  delayed cutoffs  :          0
  repropagations   :          1 (0 domain reductions, 0 cutoffs)
  avg switch length:       2.03
  switching time   :       0.54
Solution           :
  Solutions found  :          2 (2 improvements)
  Primal Bound     : +3.19100000000000e+03   (in run 1, after 389 nodes, 6743.63 seconds, depth 128, found by <rounding>)
  Dual Bound       : +3.16600000000003e+03
  Gap              :       0.79 %
  Root Dual Bound  : +3.16600000000002e+03
